0 39 
1 41 
2 41 
3 41 
4 40 
5 37 
6 36 
7 35 
8 35 
9 34 
10 33 
11 33 
12 33 
13 31 
14 30 
15 27 
16 28 
17 27 
18 26 
19 24 
20 26 
21 24 
22 22 
23 20 
24 21 
25 21 
26 20 
27 19 
28 19 
29 18 
30 18 
31 20 
32 19 
33 18 
34 18 
35 18 
36 17 
37 15 
38 14 
39 14 
40 13 
41 12 
42 10 
43 8 
44 8 
45 6 
46 5 
47 4 
48 3 
49 2 
50 1 
51 0 
52 0 

